size = 9;

clue = [| 0, 0, 0, 0, 4, 8, 0, 7, 2
        | 9, 6, 0, 0, 7, 0, 8, 0, 0
        | 7, 0, 0, 6, 3, 1, 0, 0, 0
        | 0, 9, 6, 3, 0, 0, 0, 1, 5
        | 5, 0, 8, 4, 9, 0, 0, 0, 0
        | 0, 0, 0, 0, 0, 0, 0, 2, 8
        | 6, 0, 9, 8, 2, 3, 1, 5, 0
        | 0, 0, 1, 7, 0, 4, 0, 0, 6
        | 3, 7, 0, 0, 0, 0, 2, 8, 0
        |];
